id26/workforce_scheduling.lp
\Generated by Cardinal Operations

Minimize
   x(1) + x(2) + x(3) + x(4) + x(5) + x(6) 
Subject To
 demand_period_1: x(1) + x(6) >= 10
 demand_period_2: x(2) + x(1) >= 15
 demand_period_3: x(3) + x(2) >= 25
 demand_period_4: x(4) + x(3) >= 20
 demand_period_5: x(5) + x(4) >= 18
 demand_period_6: x(6) + x(5) >= 12
Generals
 x(1)  x(2)  x(3)  x(4)  x(5)  x(6)  
END

